SECTION Graph
Nodes 1244
Edges 2474
E 1 1202 3
E 1 1205 1
E 1 1209 1
E 1 1210 6
E 2 1149 54
E 2 1210 5
E 3 1137 53
E 3 1205 6
E 3 1210 1
E 4 1209 6
E 4 1210 1
E 5 22 1
E 5 1112 5
E 5 1130 1
E 5 1141 6
E 6 23 1
E 6 1125 5
E 6 1140 1
E 6 1150 6
E 7 8 1
E 7 134 8
E 7 1109 22
E 8 15 2
E 8 135 8
E 9 10 1
E 9 137 8
E 9 1159 1
E 10 138 8
E 10 1166 2
E 11 13 6
E 11 24 1
E 11 129 1
E 11 1080 20
E 12 25 1
E 12 132 2
E 12 1147 6
E 12 1161 9
E 13 22 1
E 13 1058 20
E 13 1104 5
E 14 23 1
E 14 130 6
E 14 1119 5
E 14 1130 2
E 15 1152 8
E 15 1159 1
E 16 24 1
E 16 133 1
E 16 1086 20
E 17 25 1
E 17 138 2
E 17 1166 8
E 17 1168 9
E 18 869 5
E 18 899 1
E 18 916 2
E 18 945 6
E 19 953 8
E 19 1030 2
E 20 899 6
E 20 945 1
E 21 945 2
E 21 952 1
E 21 969 1
E 21 976 2
E 22 129 6
E 22 1108 5
E 23 131 6
E 23 1122 5
E 24 1082 20
E 24 1142 1
E 25 143 2
E 25 1165 9
E 26 144 1
E 26 652 6
E 27 144 1
E 27 665 6
E 27 712 1
E 27 713 1
E 28 807 1
E 28 822 1
E 29 1099 9
E 29 1111 5
E 29 1128 1
E 29 1153 12
E 30 1128 12
E 30 1153 1
E 30 1158 5
E 30 1171 13
E 31 783 2
E 31 789 1
E 31 806 1
E 31 893 12
E 32 34 12
E 32 805 1
E 32 806 1
E 32 836 3
E 33 34 1
E 33 806 12
E 33 893 1
E 33 975 11
E 34 922 3
E 34 983 11
E 35 36 1
E 35 820 5
E 35 849 1
E 35 867 1
E 36 826 5
E 36 876 1
E 36 890 3
E 37 910 6
E 37 944 1
E 37 959 1
E 37 982 4
E 38 958 1
E 38 959 1
E 38 990 3
E 38 1001 4
E 39 40 1
E 39 703 5
E 39 731 1
E 39 743 1
E 40 710 5
E 40 754 1
E 40 802 7
E 41 814 4
E 41 834 1
E 41 851 1
E 41 868 3
E 42 850 1
E 42 851 1
E 42 884 3
E 42 910 7
E 43 44 1
E 43 949 1
E 43 950 1
E 43 1044 12
E 44 46 12
E 44 957 1
E 44 971 1
E 45 950 12
E 45 1033 1
E 45 1044 1
E 45 1045 1
E 46 1044 1
E 46 1056 1
E 46 1057 1
E 47 629 1
E 47 630 1
E 47 646 1
E 47 706 10
E 48 646 10
E 48 706 1
E 48 723 2
E 48 732 3
E 49 50 10
E 49 569 6
E 49 602 1
E 49 622 3
E 50 665 1
E 50 689 3
E 50 690 3
E 51 52 2
E 51 1188 1
E 51 1189 1
E 51 1195 2
E 52 1192 1
E 52 1196 1
E 52 1198 2
E 53 1207 1
E 53 1208 1
E 54 1133 44
E 54 1193 7
E 54 1200 1
E 54 1206 5
E 55 1199 7
E 55 1203 1
E 56 498 1
E 56 499 1
E 56 513 1
E 56 558 9
E 57 512 1
E 57 513 1
E 57 527 2
E 57 568 9
E 58 145 1
E 58 568 6
E 58 615 2
E 58 639 5
E 59 499 9
E 59 533 3
E 59 558 1
E 59 583 6
E 60 527 9
E 60 568 2
E 60 591 2
E 60 615 6
E 61 1103 2
E 61 1106 1
E 61 1114 1
E 61 1131 7
E 62 1133 5
E 62 1143 1
E 62 1148 1
E 62 1206 44
E 63 64 2
E 63 994 1
E 63 1009 1
E 64 1025 1
E 65 66 2
E 65 1048 8
E 65 1076 1
E 65 1083 1
E 66 1059 8
E 66 1090 1
E 66 1093 2
E 67 870 23
E 67 1031 1
E 67 1040 1
E 67 1041 1
E 68 1054 2
E 68 1066 1
E 68 1175 48
E 69 87 1
E 69 595 5
E 69 632 1
E 69 633 1
E 70 88 1
E 70 623 5
E 70 666 1
E 70 667 1
E 71 72 1
E 71 154 8
E 71 728 1
E 71 741 1
E 72 155 8
E 72 750 1
E 72 751 1
E 73 74 1
E 73 158 8
E 73 769 1
E 73 786 1
E 74 159 8
E 74 791 1
E 74 792 1
E 75 89 1
E 75 146 1
E 75 618 5
E 75 634 3
E 76 90 1
E 76 152 1
E 76 687 5
E 76 727 1
E 77 87 1
E 77 579 5
E 77 596 3
E 77 618 1
E 78 88 1
E 78 614 5
E 78 641 1
E 78 654 1
E 79 700 8
E 79 750 1
E 79 769 1
E 79 770 1
E 80 89 1
E 80 153 1
E 80 649 3
E 80 721 8
E 81 90 1
E 81 160 1
E 81 740 1
E 81 797 8
E 82 373 1
E 82 381 1
E 82 401 5
E 83 411 8
E 83 461 1
E 83 584 22
E 84 161 1
E 84 410 1
E 84 423 1
E 84 424 1
E 85 86 13
E 85 1173 40
E 86 1191 39
E 87 586 5
E 87 624 1
E 88 617 5
E 88 660 1
E 89 643 3
E 89 669 1
E 90 168 1
E 90 735 1
E 91 609 1
E 91 653 6
E 92 653 5
E 92 682 1
E 92 691 1
E 92 719 5
E 93 609 6
E 93 613 5
E 93 653 1
E 93 682 5
E 94 653 1
E 94 691 5
E 95 169 1
E 95 333 23
E 95 419 1
E 95 457 6
E 96 169 1
E 96 341 23
E 96 435 1
E 96 468 6
E 97 500 2
E 97 507 1
E 97 519 1
E 97 535 4
E 98 514 2
E 98 519 1
E 98 529 1
E 98 548 4
E 99 419 6
E 99 444 1
E 99 457 1
E 99 494 7
E 100 435 6
E 100 468 1
E 100 480 1
E 100 518 7
E 101 263 1
E 101 275 5
E 102 298 1
E 102 303 2
E 103 304 1
E 103 356 12
E 104 304 12
E 104 346 2
E 104 356 1
E 104 450 23
E 105 106 10
E 105 179 6
E 105 189 1
E 105 215 13
E 106 202 1
E 106 216 3
E 106 268 25
E 107 170 1
E 107 192 2
E 107 195 1
E 107 201 1
E 108 120 2
E 108 170 1
E 108 206 1
E 108 208 2
E 109 110 1
E 109 234 1
E 109 235 1
E 109 252 6
E 110 236 1
E 110 244 2
E 110 254 6
E 111 177 1
E 111 178 1
E 112 177 1
E 112 182 1
E 112 195 12
E 113 114 1
E 113 196 1
E 113 197 1
E 113 219 6
E 114 199 1
E 114 210 3
E 114 222 6
E 115 231 1
E 115 238 2
E 116 117 1
E 116 264 1
E 116 269 1
E 117 272 1
E 118 174 1
E 118 175 10
E 119 175 1
E 119 187 7
E 120 121 2
E 120 188 9
E 120 194 1
E 121 190 9
E 121 205 1
E 121 208 2
E 122 173 30
E 122 184 1
E 122 188 1
E 122 194 9
E 123 190 1
E 123 205 9
E 124 171 5
E 125 171 6
E 125 172 1
E 125 173 1
E 125 184 30
E 126 171 1
E 126 172 6
E 127 171 1
E 127 173 6
E 128 1197 22
E 128 1204 14
E 129 1141 1
E 129 1142 1
E 130 131 1
E 130 141 1
E 130 1145 2
E 131 1150 1
E 131 1151 1
E 132 143 1
E 132 1140 6
E 132 1150 1
E 133 134 1
E 133 1142 1
E 134 135 1
E 134 139 1
E 135 140 1
E 135 1152 2
E 136 137 1
E 136 1151 1
E 136 1152 1
E 136 1159 8
E 137 138 1
E 137 142 1
E 138 143 1
E 139 140 1
E 139 1141 1
E 139 1142 1
E 140 141 2
E 140 1145 1
E 141 1151 1
E 141 1152 1
E 142 143 1
E 142 1150 1
E 142 1151 1
E 144 659 6
E 145 562 6
E 145 592 1
E 145 629 5
E 146 624 5
E 146 668 1
E 146 669 1
E 147 148 1
E 147 163 1
E 147 642 5
E 147 668 1
E 148 149 1
E 148 164 1
E 148 648 5
E 149 150 1
E 149 165 1
E 149 654 5
E 150 660 5
E 150 698 1
E 150 699 1
E 151 152 1
E 151 167 1
E 151 677 5
E 151 698 1
E 152 168 1
E 152 684 5
E 153 154 1
E 153 669 1
E 153 728 8
E 154 155 1
E 154 162 1
E 155 156 1
E 155 163 1
E 156 164 1
E 156 700 1
E 156 750 8
E 157 158 1
E 157 699 1
E 157 700 1
E 157 769 8
E 158 159 1
E 158 166 1
E 159 160 1
E 159 167 1
E 160 168 1
E 160 791 8
E 161 404 1
E 161 405 1
E 161 418 1
E 162 163 1
E 162 668 1
E 162 669 1
E 163 164 1
E 164 165 1
E 165 699 1
E 165 700 1
E 166 167 1
E 166 698 1
E 166 699 1
E 167 168 1
E 169 335 23
E 169 462 6
E 170 194 2
E 170 203 1
E 172 181 30
E 174 176 10
E 174 183 13
E 175 176 1
E 175 189 7
E 176 179 1
E 176 193 13
E 177 180 1
E 178 180 1
E 178 183 2
E 179 197 13
E 180 182 1
E 180 185 2
E 181 184 1
E 181 191 9
E 182 186 2
E 182 198 12
E 183 185 1
E 183 193 10
E 184 192 9
E 185 186 1
E 185 196 10
E 186 199 10
E 186 204 12
E 187 189 1
E 187 200 10
E 188 190 2
E 189 202 10
E 191 192 1
E 191 195 2
E 192 194 1
E 193 196 1
E 193 197 1
E 195 198 1
E 196 199 1
E 197 215 6
E 198 201 1
E 198 204 2
E 199 229 12
E 200 202 1
E 200 266 26
E 201 203 1
E 201 207 2
E 203 206 1
E 203 209 2
E 204 207 1
E 204 229 10
E 205 211 2
E 206 212 2
E 206 213 2
E 207 209 1
E 207 232 10
E 208 211 1
E 208 212 1
E 209 213 1
E 209 234 10
E 210 214 1
E 210 256 18
E 211 217 1
E 212 217 1
E 212 221 2
E 213 221 2
E 213 236 10
E 214 218 1
E 214 227 6
E 215 219 1
E 215 237 10
E 216 225 3
E 216 282 26
E 216 297 31
E 217 220 1
E 217 224 2
E 218 230 6
E 218 233 7
E 219 222 1
E 219 239 10
E 220 223 1
E 220 249 13
E 221 224 1
E 221 240 10
E 222 227 4
E 222 241 10
E 223 226 3
E 223 251 13
E 224 238 8
E 224 243 10
E 225 237 7
E 225 310 31
E 226 228 1
E 226 258 13
E 227 230 1
E 227 253 10
E 228 231 1
E 228 261 13
E 229 232 1
E 229 233 1
E 230 247 7
E 230 255 10
E 231 260 12
E 232 234 1
E 232 235 1
E 233 235 1
E 233 247 6
E 234 236 1
E 235 250 6
E 236 240 2
E 237 239 1
E 237 242 2
E 238 264 10
E 239 241 1
E 239 245 2
E 240 243 1
E 240 244 1
E 241 248 2
E 241 253 4
E 242 245 1
E 242 312 23
E 243 246 1
E 243 260 7
E 244 246 1
E 245 248 1
E 245 315 23
E 246 249 1
E 246 262 6
E 247 250 1
E 247 273 10
E 248 256 3
E 248 320 23
E 249 251 1
E 249 305 18
E 250 252 1
E 251 258 3
E 251 309 18
E 252 254 1
E 252 280 10
E 253 255 1
E 253 257 2
E 254 262 3
E 254 285 10
E 255 259 2
E 255 273 7
E 256 257 1
E 256 334 23
E 257 259 1
E 257 336 23
E 258 261 1
E 258 276 6
E 259 281 7
E 259 342 23
E 260 264 1
E 260 265 1
E 261 265 1
E 261 279 6
E 262 276 5
E 262 293 10
E 263 266 1
E 263 278 5
E 264 267 1
E 265 267 1
E 265 284 6
E 266 271 2
E 266 283 5
E 267 269 1
E 267 287 6
E 268 270 1
E 268 271 1
E 269 272 1
E 269 290 6
E 270 274 1
E 270 291 6
E 271 277 2
E 271 289 5
E 272 292 6
E 273 280 2
E 273 281 2
E 274 277 1
E 274 282 2
E 275 278 1
E 275 298 7
E 276 279 1
E 276 319 12
E 277 286 2
E 277 294 5
E 278 283 1
E 278 302 7
E 279 284 1
E 279 325 12
E 280 285 1
E 280 288 2
E 281 288 2
E 281 364 23
E 282 286 1
E 282 312 9
E 283 289 2
E 283 307 7
E 284 287 1
E 284 318 10
E 285 293 3
E 285 372 25
E 286 296 4
E 286 301 5
E 287 290 1
E 287 324 10
E 288 299 4
E 288 370 23
E 289 291 1
E 289 313 7
E 290 292 1
E 290 335 12
E 291 294 1
E 291 317 7
E 292 295 1
E 292 332 10
E 293 299 2
E 293 318 7
E 294 297 1
E 294 322 7
E 295 304 2
E 295 346 12
E 296 300 1
E 296 310 7
E 296 349 12
E 297 301 1
E 297 326 7
E 298 302 1
E 298 308 2
E 299 305 1
E 299 382 23
E 300 306 1
E 300 352 12
E 301 310 2
E 301 329 7
E 302 307 1
E 302 311 2
E 303 308 1
E 303 373 20
E 305 309 1
E 305 389 23
E 306 316 3
E 306 353 12
E 307 313 2
E 307 314 2
E 308 311 1
E 308 376 20
E 309 319 3
E 309 393 23
E 310 338 7
E 310 339 7
E 311 314 1
E 311 380 20
E 312 315 1
E 312 316 1
E 313 317 1
E 313 323 2
E 314 323 2
E 314 331 4
E 315 320 1
E 315 321 1
E 316 321 1
E 316 338 5
E 317 322 1
E 317 327 2
E 318 324 1
E 318 328 2
E 319 325 1
E 319 406 23
E 320 334 3
E 320 348 6
E 321 337 4
E 321 344 5
E 322 326 1
E 322 330 2
E 323 327 1
E 323 400 21
E 324 332 2
E 324 333 2
E 325 328 1
E 325 412 23
E 326 329 1
E 326 408 22
E 327 330 1
E 327 345 4
E 328 333 1
E 328 419 23
E 329 339 2
E 329 340 2
E 330 340 2
E 330 351 4
E 331 345 3
E 331 355 6
E 332 341 2
E 333 335 1
E 334 336 1
E 334 337 1
E 335 341 1
E 336 342 1
E 336 343 1
E 337 343 1
E 337 357 5
E 338 344 1
E 338 362 7
E 339 349 2
E 339 350 2
E 340 350 2
E 340 415 20
E 341 346 1
E 342 347 1
E 342 364 7
E 343 347 1
E 343 359 5
E 344 348 1
E 344 365 7
E 345 351 1
E 345 363 6
E 346 435 23
E 347 361 5
E 347 367 7
E 348 357 3
E 348 482 30
E 349 352 1
E 349 354 2
E 350 354 2
E 350 426 20
E 351 366 6
E 351 378 11
E 352 353 1
E 352 358 2
E 353 360 2
E 353 362 3
E 354 358 1
E 354 432 20
E 355 363 3
E 355 369 5
E 356 456 23
E 357 359 1
E 357 374 7
E 358 360 1
E 358 438 20
E 359 361 1
E 359 377 7
E 360 368 3
E 360 445 20
E 361 383 7
E 361 384 7
E 362 365 1
E 362 368 2
E 363 366 1
E 363 375 5
E 364 367 1
E 364 370 2
E 365 371 2
E 365 374 4
E 366 379 5
E 366 407 11
E 367 383 5
E 367 390 6
E 368 371 1
E 368 378 4
E 369 375 3
E 369 387 5
E 370 372 1
E 370 395 6
E 371 385 4
E 371 386 4
E 372 382 3
E 372 398 6
E 373 376 1
E 374 377 1
E 374 385 2
E 375 379 1
E 375 399 5
E 376 380 1
E 376 381 1
E 377 384 1
E 377 391 2
E 378 386 1
E 378 407 6
E 379 402 5
E 379 431 11
E 380 387 1
E 380 388 1
E 381 388 1
E 381 404 5
E 382 389 1
E 382 390 1
E 383 395 2
E 383 421 7
E 384 396 2
E 384 421 7
E 385 391 1
E 385 496 20
E 386 414 6
E 386 452 13
E 387 392 1
E 387 399 3
E 388 392 1
E 388 410 5
E 389 393 1
E 389 394 1
E 390 394 1
E 390 413 5
E 391 396 1
E 391 502 20
E 392 400 2
E 392 417 5
E 393 397 1
E 393 406 3
E 394 397 1
E 394 420 5
E 395 398 1
E 395 565 30
E 396 428 7
E 396 508 20
E 397 425 5
E 398 413 3
E 398 572 30
E 399 402 1
E 399 403 1
E 400 403 1
E 401 404 1
E 401 405 1
E 402 408 1
E 402 409 1
E 403 409 1
E 403 430 5
E 404 410 1
E 405 411 1
E 406 412 1
E 406 436 6
E 407 414 1
E 407 431 5
E 408 415 1
E 408 416 1
E 409 416 1
E 409 433 5
E 410 417 1
E 411 418 1
E 412 419 1
E 412 444 6
E 413 420 1
E 413 451 7
E 414 437 5
E 414 489 13
E 415 422 1
E 415 426 2
E 416 422 1
E 416 440 5
E 417 423 1
E 417 430 3
E 418 424 1
E 418 461 8
E 420 425 1
E 420 458 7
E 421 428 2
E 421 451 6
E 422 429 2
E 422 447 5
E 423 427 1
E 423 434 3
E 424 427 1
E 424 467 8
E 425 436 3
E 425 463 7
E 426 429 1
E 426 432 2
E 427 442 3
E 427 474 8
E 428 452 4
E 428 464 6
E 429 439 2
E 429 459 5
E 430 433 1
E 430 434 1
E 431 437 1
E 431 465 5
E 432 438 1
E 432 439 1
E 433 440 1
E 433 441 1
E 434 441 1
E 434 442 1
E 435 443 1
E 436 444 1
E 436 481 7
E 437 470 5
E 437 521 13
E 438 445 1
E 438 446 1
E 439 446 1
E 439 472 5
E 440 447 1
E 440 448 1
E 441 448 1
E 441 449 1
E 442 449 1
E 442 492 8
E 443 450 1
E 443 480 6
E 444 487 7
E 445 453 1
E 445 465 3
E 446 453 1
E 446 477 5
E 447 454 1
E 447 459 2
E 448 454 1
E 448 455 1
E 449 455 1
E 449 498 8
E 450 456 1
E 450 486 6
E 451 458 1
E 451 464 2
E 452 488 6
E 452 489 6
E 453 471 3
E 453 483 5
E 454 460 1
E 454 466 2
E 455 460 1
E 455 505 8
E 456 493 6
E 457 462 1
E 457 500 7
E 458 463 1
E 458 469 2
E 459 466 1
E 459 472 2
E 460 473 2
E 460 512 8
E 461 467 1
E 461 593 22
E 462 468 1
E 462 506 7
E 463 475 2
E 463 481 3
E 464 469 1
E 464 488 4
E 465 470 1
E 465 471 1
E 466 473 1
E 466 478 2
E 467 474 1
E 467 602 22
E 468 514 7
E 469 475 1
E 469 587 20
E 470 476 1
E 470 496 4
E 471 476 1
E 471 504 5
E 472 477 1
E 472 478 1
E 473 485 2
E 473 523 8
E 474 479 1
E 474 492 3
E 475 495 3
E 475 596 20
E 476 482 1
E 476 510 5
E 477 483 1
E 477 484 1
E 478 484 1
E 478 485 1
E 479 499 3
E 479 533 9
E 480 486 1
E 480 524 7
E 481 487 1
E 481 495 2
E 482 503 3
E 482 576 16
E 483 490 1
E 483 504 3
E 484 490 1
E 484 491 1
E 485 491 1
E 485 532 8
E 486 493 1
E 486 528 7
E 487 494 1
E 487 501 2
E 488 520 5
E 488 526 6
E 489 521 5
E 489 526 6
E 490 497 1
E 490 511 3
E 491 497 1
E 491 538 8
E 492 498 1
E 492 499 1
E 493 547 9
E 494 500 1
E 494 507 2
E 495 501 1
E 495 520 4
E 496 502 1
E 496 503 1
E 497 517 3
E 497 545 8
E 498 505 1
E 500 506 1
E 501 507 1
E 501 525 4
E 502 508 1
E 502 509 1
E 503 509 1
E 503 531 5
E 504 510 1
E 504 511 1
E 505 512 1
E 505 513 1
E 506 514 1
E 506 519 2
E 507 530 4
E 508 515 1
E 508 549 7
E 509 515 1
E 509 536 5
E 510 516 1
E 510 531 4
E 511 516 1
E 511 517 1
E 512 523 2
E 513 562 9
E 514 518 1
E 515 542 5
E 515 556 7
E 516 522 1
E 516 537 4
E 517 522 1
E 517 561 8
E 518 524 1
E 518 529 2
E 519 541 4
E 520 525 1
E 520 554 6
E 521 549 5
E 521 555 6
E 522 544 4
E 522 566 8
E 523 527 1
E 523 532 2
E 524 528 1
E 524 534 2
E 525 530 1
E 525 560 6
E 526 554 5
E 526 555 5
E 527 539 2
E 528 540 2
E 529 534 1
E 529 553 4
E 530 535 1
E 530 564 6
E 531 536 1
E 531 537 1
E 532 538 1
E 532 539 1
E 533 569 6
E 534 540 1
E 534 559 4
E 535 541 1
E 535 571 6
E 536 542 1
E 536 543 1
E 537 543 1
E 537 544 1
E 538 545 1
E 538 546 1
E 539 546 1
E 539 591 9
E 540 547 1
E 540 563 4
E 541 548 1
E 541 575 6
E 542 550 1
E 542 581 7
E 543 550 1
E 543 551 1
E 544 551 1
E 544 590 8
E 545 552 1
E 545 561 3
E 546 552 1
E 546 601 9
E 547 570 4
E 548 553 1
E 548 578 6
E 549 556 1
E 549 580 6
E 550 557 1
E 550 589 7
E 551 557 1
E 551 599 8
E 552 567 3
E 552 608 9
E 553 559 1
E 553 585 6
E 554 560 1
E 554 579 5
E 555 579 5
E 555 580 5
E 556 565 2
E 556 581 5
E 557 598 7
E 557 606 8
E 558 562 1
E 558 592 6
E 559 563 1
E 559 594 6
E 560 564 1
E 560 586 5
E 561 566 1
E 561 567 1
E 562 568 1
E 563 570 1
E 563 603 6
E 564 571 1
E 564 595 5
E 565 572 1
E 565 670 16
E 566 573 1
E 566 590 4
E 567 573 1
E 567 577 2
E 569 583 3
E 570 574 1
E 570 610 6
E 571 575 1
E 571 604 5
E 572 588 3
E 572 678 16
E 573 576 1
E 573 582 2
E 574 609 5
E 574 613 6
E 575 578 1
E 575 611 5
E 576 600 3
E 577 582 1
E 577 620 7
E 578 585 1
E 578 614 5
E 579 586 1
E 580 587 1
E 580 588 1
E 581 589 1
E 581 619 6
E 582 627 7
E 582 671 13
E 583 592 1
E 583 616 5
E 584 593 1
E 584 652 10
E 585 594 1
E 585 617 5
E 586 595 1
E 587 596 1
E 587 597 1
E 588 597 1
E 588 619 5
E 589 598 1
E 589 626 6
E 590 599 1
E 590 600 1
E 591 601 1
E 591 628 6
E 592 621 5
E 593 602 1
E 593 659 10
E 594 603 1
E 594 623 5
E 595 604 1
E 596 605 1
E 597 605 1
E 597 625 5
E 598 636 6
E 598 650 8
E 599 606 1
E 599 607 1
E 600 607 1
E 600 656 9
E 601 608 1
E 601 638 6
E 602 665 10
E 603 610 1
E 603 631 5
E 604 611 1
E 604 632 5
E 605 618 3
E 605 634 5
E 606 612 1
E 606 650 7
E 607 612 1
E 607 661 9
E 608 620 3
E 608 645 6
E 610 613 1
E 610 640 5
E 611 614 1
E 611 641 5
E 612 655 7
E 612 672 9
E 613 647 5
E 614 617 1
E 615 628 2
E 615 651 5
E 616 621 1
E 616 622 1
E 617 623 1
E 618 624 1
E 619 625 1
E 619 626 1
E 620 627 1
E 620 657 5
E 621 629 1
E 621 630 1
E 622 630 1
E 622 689 10
E 623 631 1
E 624 633 1
E 625 634 1
E 625 635 1
E 626 635 1
E 626 636 1
E 627 637 1
E 627 662 5
E 628 638 1
E 628 664 5
E 629 639 1
E 630 697 10
E 631 640 1
E 631 666 5
E 632 641 1
E 632 642 1
E 633 642 1
E 633 668 5
E 634 643 1
E 635 643 1
E 635 644 1
E 636 644 1
E 636 688 8
E 637 656 3
E 638 645 1
E 638 674 5
E 639 646 1
E 639 651 2
E 640 647 1
E 640 676 5
E 641 648 1
E 642 648 1
E 643 649 1
E 644 649 1
E 644 693 8
E 645 663 3
E 645 680 5
E 646 658 2
E 647 682 5
E 647 683 5
E 648 654 1
E 649 701 8
E 650 655 1
E 650 688 6
E 651 658 1
E 651 664 2
E 652 659 1
E 654 660 1
E 655 670 2
E 655 671 2
E 656 661 1
E 656 695 6
E 657 662 1
E 657 663 1
E 658 675 2
E 658 723 10
E 659 665 1
E 660 667 1
E 661 672 1
E 661 703 6
E 662 673 1
E 662 753 13
E 663 673 1
E 663 696 5
E 664 674 1
E 664 675 1
E 666 676 1
E 666 677 1
E 667 677 1
E 667 698 5
E 670 678 1
E 671 709 6
E 671 717 7
E 672 710 6
E 672 717 7
E 673 679 1
E 673 704 5
E 674 680 1
E 674 681 1
E 675 681 1
E 675 738 10
E 676 683 1
E 676 684 1
E 677 684 1
E 678 694 3
E 679 695 3
E 680 685 1
E 680 696 3
E 681 685 1
E 681 744 10
E 682 714 5
E 683 686 1
E 683 687 1
E 684 687 1
E 685 705 3
E 685 755 10
E 686 692 1
E 686 727 6
E 687 715 4
E 688 693 1
E 688 694 1
E 689 697 1
E 690 712 3
E 690 724 5
E 691 725 5
E 692 707 2
E 692 734 6
E 693 701 1
E 693 702 1
E 694 702 1
E 694 709 2
E 695 703 1
E 695 731 5
E 696 704 1
E 696 705 1
E 697 706 1
E 701 708 1
E 701 721 3
E 702 708 1
E 702 716 2
E 703 710 1
E 704 711 1
E 704 731 4
E 705 711 1
E 705 781 10
E 706 724 3
E 707 714 1
E 707 715 1
E 708 722 2
E 708 729 3
E 709 716 1
E 709 762 7
E 710 763 7
E 711 737 4
E 711 788 10
E 712 718 1
E 712 746 5
E 713 718 1
E 713 807 12
E 714 719 1
E 714 720 1
E 715 720 1
E 715 748 5
E 716 722 1
E 716 772 7
E 717 730 2
E 717 753 5
E 718 757 5
E 718 815 12
E 719 725 1
E 719 726 1
E 720 726 1
E 720 758 5
E 721 728 1
E 721 729 1
E 722 742 3
E 722 780 7
E 723 738 2
E 723 745 3
E 724 732 1
E 724 746 3
E 725 733 1
E 726 733 1
E 726 766 5
E 727 734 1
E 727 735 1
E 728 736 1
E 729 736 1
E 729 742 2
E 730 762 4
E 731 737 1
E 732 745 2
E 732 756 3
E 733 747 2
E 733 775 5
E 734 739 1
E 734 748 2
E 735 739 1
E 735 740 1
E 736 741 1
E 736 752 2
E 737 743 1
E 737 821 10
E 738 744 1
E 738 764 3
E 739 749 1
E 739 759 2
E 740 749 1
E 740 808 8
E 741 751 1
E 741 761 2
E 742 752 1
E 742 800 7
E 743 754 1
E 743 827 10
E 744 755 1
E 744 773 3
E 745 764 2
E 745 774 3
E 746 756 1
E 746 757 1
E 747 796 6
E 747 823 9
E 748 758 1
E 748 759 1
E 749 768 2
E 749 816 8
E 750 760 1
E 751 760 1
E 751 771 2
E 752 761 1
E 752 811 7
E 753 763 1
E 753 801 6
E 754 813 7
E 754 833 10
E 755 781 3
E 755 782 3
E 756 765 1
E 756 774 2
E 757 765 1
E 757 852 12
E 758 766 1
E 758 767 1
E 759 767 1
E 759 768 1
E 760 770 1
E 760 779 2
E 761 771 1
E 761 818 7
E 762 772 1
E 762 801 5
E 763 802 5
E 763 812 6
E 764 773 1
E 764 789 3
E 765 783 2
E 765 860 12
E 766 775 1
E 766 776 1
E 767 776 1
E 767 777 1
E 768 777 1
E 768 830 8
E 769 778 1
E 770 778 1
E 770 787 2
E 771 779 1
E 771 825 7
E 772 780 1
E 772 820 6
E 773 782 1
E 773 795 3
E 774 783 1
E 774 789 2
E 775 784 1
E 775 1031 34
E 776 784 1
E 776 785 1
E 777 785 1
E 777 837 8
E 778 786 1
E 778 793 2
E 779 787 1
E 779 832 7
E 780 800 3
E 780 819 5
E 781 788 1
E 781 794 2
E 782 804 3
E 782 805 3
E 783 878 12
E 784 790 1
E 784 796 2
E 785 790 1
E 785 844 8
E 786 792 1
E 786 799 2
E 787 793 1
E 787 840 7
E 788 803 2
E 788 821 4
E 789 795 1
E 790 853 8
E 790 887 12
E 791 797 1
E 791 798 1
E 792 798 1
E 792 810 2
E 793 799 1
E 793 846 7
E 794 803 1
E 794 804 1
E 795 805 1
E 795 806 1
E 796 870 9
E 796 871 9
E 797 808 1
E 797 809 1
E 798 809 1
E 798 817 2
E 799 810 1
E 799 856 7
E 800 811 1
E 800 841 5
E 801 812 1
E 801 819 2
E 802 813 1
E 802 849 6
E 803 814 1
E 803 834 4
E 804 814 1
E 804 828 3
E 805 828 3
E 807 815 1
E 808 816 1
E 808 831 3
E 809 824 2
E 809 838 4
E 810 817 1
E 810 864 7
E 811 818 1
E 811 847 5
E 812 820 1
E 812 849 5
E 813 859 6
E 813 891 10
E 814 835 3
E 815 822 1
E 815 852 5
E 816 830 2
E 816 839 3
E 817 824 1
E 817 873 7
E 818 825 1
E 818 857 5
E 819 826 1
E 819 841 3
E 820 826 1
E 821 827 1
E 821 834 2
E 822 861 5
E 823 829 1
E 823 870 6
E 824 831 1
E 824 881 7
E 825 832 1
E 825 865 5
E 826 848 3
E 827 833 1
E 827 842 2
E 828 835 1
E 828 836 1
E 829 887 7
E 829 994 22
E 830 837 1
E 830 838 1
E 831 839 1
E 831 918 12
E 832 840 1
E 832 874 5
E 833 850 2
E 833 891 7
E 834 842 1
E 835 843 1
E 835 868 4
E 836 843 1
E 836 922 12
E 837 844 1
E 837 845 1
E 838 845 1
E 838 855 2
E 839 855 2
E 839 924 12
E 840 846 1
E 840 882 5
E 841 847 1
E 841 848 1
E 842 850 1
E 842 851 1
E 843 877 4
E 843 929 12
E 844 853 1
E 844 854 1
E 845 854 1
E 845 863 2
E 846 856 1
E 846 888 5
E 847 857 1
E 847 858 1
E 848 858 1
E 848 890 5
E 849 859 1
E 850 904 7
E 851 885 4
E 852 860 1
E 852 861 1
E 853 862 1
E 853 871 2
E 854 862 1
E 854 872 2
E 855 863 1
E 855 905 7
E 856 864 1
E 856 895 5
E 857 865 1
E 857 866 1
E 858 866 1
E 858 897 5
E 859 867 1
E 859 927 10
E 860 869 1
E 860 878 2
E 861 869 1
E 861 899 5
E 862 879 2
E 862 880 2
E 863 872 1
E 863 911 7
E 864 873 1
E 864 900 5
E 865 874 1
E 865 875 1
E 866 875 1
E 866 902 5
E 867 876 1
E 867 934 10
E 868 877 1
E 868 884 2
E 869 886 2
E 870 887 2
E 870 931 9
E 871 879 1
E 871 931 9
E 872 880 1
E 872 917 7
E 873 881 1
E 873 906 5
E 874 882 1
E 874 883 1
E 875 883 1
E 875 908 5
E 876 898 3
E 876 943 10
E 877 885 1
E 877 960 12
E 878 886 1
E 878 893 2
E 879 894 2
E 879 938 9
E 880 894 2
E 880 923 7
E 881 905 4
E 881 912 5
E 882 888 1
E 882 889 1
E 883 889 1
E 883 914 5
E 884 892 1
E 884 928 7
E 885 892 1
E 886 916 5
E 886 930 7
E 887 937 8
E 887 977 13
E 888 895 1
E 888 896 1
E 889 896 1
E 889 920 5
E 890 897 1
E 890 898 1
E 891 904 2
E 891 927 6
E 892 935 7
E 892 973 12
E 893 968 11
E 894 939 7
E 894 954 9
E 895 900 1
E 895 901 1
E 896 901 1
E 896 925 5
E 897 902 1
E 897 903 1
E 898 903 1
E 898 965 10
E 900 906 1
E 900 907 1
E 901 907 1
E 901 932 5
E 902 908 1
E 902 909 1
E 903 909 1
E 903 972 10
E 904 910 1
E 904 944 6
E 905 911 1
E 905 940 5
E 906 912 1
E 906 913 1
E 907 913 1
E 907 941 5
E 908 914 1
E 908 915 1
E 909 915 1
E 909 980 10
E 910 928 3
E 911 917 1
E 911 947 5
E 912 918 1
E 912 919 1
E 913 919 1
E 913 949 5
E 914 920 1
E 914 921 1
E 915 921 1
E 915 988 10
E 916 952 5
E 916 967 7
E 917 923 1
E 917 955 5
E 918 924 1
E 918 971 7
E 919 948 4
E 919 957 5
E 920 925 1
E 920 926 1
E 921 926 1
E 921 998 10
E 922 929 1
E 922 930 1
E 923 939 2
E 923 963 5
E 924 940 2
E 924 979 7
E 925 932 1
E 925 933 1
E 926 933 1
E 926 1005 10
E 927 934 1
E 927 944 2
E 928 935 1
E 929 936 1
E 929 960 4
E 930 936 1
E 930 961 4
E 931 937 1
E 931 938 1
E 932 941 1
E 932 942 1
E 933 942 1
E 933 1013 10
E 934 943 1
E 934 951 2
E 935 982 6
E 935 1028 12
E 936 966 4
E 936 1035 13
E 937 946 1
E 937 1037 13
E 938 946 1
E 938 954 2
E 939 978 5
E 939 1010 9
E 940 947 1
E 940 948 1
E 941 949 1
E 941 950 1
E 942 950 1
E 942 1020 10
E 943 958 2
E 943 965 3
E 944 951 1
E 945 953 1
E 946 962 2
E 946 1081 22
E 947 955 1
E 947 956 1
E 948 956 1
E 948 997 6
E 949 957 1
E 951 958 1
E 951 959 1
E 952 968 2
E 953 969 2
E 954 962 1
E 954 1010 7
E 955 963 1
E 955 964 1
E 956 964 1
E 956 996 5
E 957 996 5
E 958 981 3
E 959 991 4
E 960 973 2
E 961 966 1
E 961 967 1
E 962 1018 7
E 962 1060 14
E 963 970 1
E 963 978 2
E 964 970 1
E 964 1003 5
E 965 972 1
E 965 981 2
E 966 974 1
E 966 1058 13
E 967 974 1
E 967 1008 5
E 968 975 1
E 968 976 1
E 969 985 2
E 969 1030 8
E 970 987 2
E 970 1011 5
E 971 979 1
E 971 1056 12
E 972 980 1
E 972 989 2
E 973 1028 7
E 974 1016 5
E 974 1063 13
E 975 983 1
E 975 984 1
E 976 984 1
E 976 985 1
E 977 986 1
E 977 1037 8
E 978 987 1
E 978 1043 9
E 979 997 2
E 979 1061 12
E 980 988 1
E 980 999 2
E 981 989 1
E 981 990 1
E 982 991 1
E 982 1062 12
E 983 992 1
E 983 1008 3
E 984 992 1
E 984 993 1
E 985 993 1
E 985 1039 8
E 986 995 1
E 986 1042 8
E 987 1032 6
E 987 1051 9
E 988 998 1
E 988 1006 2
E 989 999 1
E 989 1000 1
E 990 1000 1
E 991 1001 1
E 992 1002 1
E 992 1017 3
E 993 1002 1
E 993 1046 8
E 994 1031 5
E 995 1041 7
E 995 1049 8
E 996 1003 1
E 996 1004 1
E 997 1004 1
E 997 1067 12
E 998 1005 1
E 998 1014 2
E 999 1006 1
E 999 1007 1
E 1000 1007 1
E 1001 1068 12
E 1001 1069 12
E 1002 1024 3
E 1002 1053 8
E 1003 1011 1
E 1003 1012 1
E 1004 1012 1
E 1004 1071 12
E 1005 1013 1
E 1005 1021 2
E 1006 1014 1
E 1006 1015 1
E 1007 1015 1
E 1008 1016 1
E 1008 1017 1
E 1009 1025 2
E 1009 1036 4
E 1010 1018 1
E 1010 1043 5
E 1011 1019 1
E 1012 1019 1
E 1012 1074 12
E 1013 1020 1
E 1013 1026 2
E 1014 1021 1
E 1014 1022 1
E 1015 1022 1
E 1016 1023 1
E 1016 1080 13
E 1017 1023 1
E 1017 1024 1
E 1018 1050 5
E 1018 1107 22
E 1019 1032 2
E 1019 1078 12
E 1020 1033 2
E 1021 1026 1
E 1021 1027 1
E 1022 1027 1
E 1023 1029 1
E 1023 1082 13
E 1024 1029 1
E 1024 1065 8
E 1025 1047 4
E 1025 1160 50
E 1026 1033 1
E 1026 1034 1
E 1027 1034 1
E 1028 1035 1
E 1028 1062 6
E 1029 1070 8
E 1029 1086 13
E 1030 1039 2
E 1031 1036 1
E 1032 1073 9
E 1032 1084 12
E 1033 1038 1
E 1034 1038 1
E 1035 1058 4
E 1036 1040 1
E 1036 1047 2
E 1037 1042 1
E 1037 1097 15
E 1038 1045 1
E 1039 1046 1
E 1040 1048 1
E 1040 1054 2
E 1041 1048 1
E 1041 1076 8
E 1042 1049 1
E 1042 1060 3
E 1043 1050 1
E 1043 1051 1
E 1044 1052 1
E 1045 1052 1
E 1046 1053 1
E 1047 1054 1
E 1048 1059 2
E 1049 1064 3
E 1049 1076 7
E 1050 1055 1
E 1050 1097 13
E 1051 1055 1
E 1051 1073 6
E 1052 1057 1
E 1052 1068 4
E 1053 1065 3
E 1054 1059 1
E 1055 1077 6
E 1055 1124 22
E 1056 1061 1
E 1056 1075 5
E 1057 1072 4
E 1058 1063 1
E 1059 1066 2
E 1060 1064 1
E 1060 1098 12
E 1061 1067 2
E 1061 1079 5
E 1062 1069 2
E 1063 1080 5
E 1064 1088 7
E 1064 1102 12
E 1065 1070 1
E 1065 1113 15
E 1066 1087 6
E 1067 1071 1
E 1067 1085 5
E 1068 1072 1
E 1068 1104 12
E 1069 1104 12
E 1070 1109 13
E 1070 1117 15
E 1071 1074 1
E 1071 1089 5
E 1072 1075 1
E 1072 1108 12
E 1073 1077 1
E 1073 1111 12
E 1074 1078 1
E 1074 1092 5
E 1075 1079 1
E 1075 1112 12
E 1076 1081 1
E 1077 1115 12
E 1078 1084 2
E 1078 1094 5
E 1079 1085 2
E 1079 1116 12
E 1080 1082 1
E 1081 1083 1
E 1081 1088 2
E 1082 1086 1
E 1083 1090 2
E 1083 1091 2
E 1084 1099 5
E 1084 1111 9
E 1085 1089 1
E 1085 1119 12
E 1086 1109 8
E 1087 1093 2
E 1087 1183 48
E 1088 1091 1
E 1088 1107 7
E 1089 1092 1
E 1089 1122 12
E 1090 1095 2
E 1090 1096 2
E 1091 1096 2
E 1091 1110 7
E 1092 1094 1
E 1092 1125 12
E 1093 1095 1
E 1093 1186 48
E 1094 1099 2
E 1094 1129 12
E 1095 1100 2
E 1095 1101 2
E 1096 1101 2
E 1096 1118 7
E 1097 1098 1
E 1097 1154 24
E 1098 1102 1
E 1098 1155 24
E 1099 1135 12
E 1100 1103 1
E 1100 1106 2
E 1101 1106 2
E 1101 1120 7
E 1102 1121 7
E 1102 1156 24
E 1103 1105 1
E 1104 1108 1
E 1105 1114 2
E 1105 1189 44
E 1106 1126 7
E 1107 1110 1
E 1107 1121 5
E 1108 1112 1
E 1109 1137 10
E 1110 1118 2
E 1110 1123 5
E 1111 1115 1
E 1112 1116 1
E 1114 1133 7
E 1114 1193 44
E 1115 1128 5
E 1116 1119 2
E 1116 1130 5
E 1118 1120 2
E 1118 1132 5
E 1119 1122 1
E 1120 1126 2
E 1120 1136 5
E 1121 1123 1
E 1121 1124 1
E 1122 1125 1
E 1123 1127 1
E 1123 1132 2
E 1124 1127 1
E 1124 1156 30
E 1125 1129 1
E 1126 1131 1
E 1126 1139 5
E 1127 1134 2
E 1127 1163 23
E 1128 1154 13
E 1129 1135 2
E 1129 1140 5
E 1130 1145 6
E 1131 1133 1
E 1131 1143 5
E 1132 1134 1
E 1132 1136 2
E 1134 1138 2
E 1134 1170 23
E 1135 1147 5
E 1135 1153 9
E 1136 1138 1
E 1136 1139 2
E 1137 1149 5
E 1138 1144 2
E 1139 1143 1
E 1139 1144 1
E 1140 1147 2
E 1141 1145 1
E 1143 1146 1
E 1144 1146 1
E 1144 1178 23
E 1146 1148 1
E 1147 1157 9
E 1148 1208 44
E 1153 1157 5
E 1154 1155 1
E 1154 1171 12
E 1155 1156 1
E 1155 1174 12
E 1156 1163 8
E 1156 1176 12
E 1157 1158 1
E 1157 1161 6
E 1158 1164 6
E 1160 1162 1
E 1160 1175 5
E 1161 1164 1
E 1161 1165 1
E 1162 1169 2
E 1162 1177 5
E 1163 1170 2
E 1163 1185 12
E 1164 1167 1
E 1165 1167 1
E 1165 1168 1
E 1166 1181 9
E 1167 1172 1
E 1168 1172 1
E 1168 1181 8
E 1169 1173 1
E 1169 1179 5
E 1170 1178 4
E 1170 1190 12
E 1171 1174 1
E 1171 1201 22
E 1172 1182 8
E 1173 1180 5
E 1174 1176 1
E 1174 1202 22
E 1175 1177 1
E 1175 1183 7
E 1176 1185 8
E 1176 1204 22
E 1177 1179 2
E 1177 1184 7
E 1178 1197 12
E 1179 1180 1
E 1179 1187 7
E 1180 1191 7
E 1181 1182 1
E 1182 1201 14
E 1183 1184 1
E 1183 1186 2
E 1184 1187 2
E 1184 1188 2
E 1185 1190 2
E 1186 1188 1
E 1186 1189 1
E 1187 1191 1
E 1187 1192 2
E 1188 1192 2
E 1189 1193 2
E 1190 1197 4
E 1191 1194 2
E 1192 1194 1
E 1193 1195 1
E 1194 1196 1
E 1195 1198 2
E 1195 1200 7
E 1196 1199 2
E 1198 1199 1
E 1198 1203 7
E 1200 1203 2
E 1200 1207 5
E 1201 1202 1
E 1201 1205 3
E 1202 1204 1
E 1204 1209 3
E 1206 1207 1
E 1206 1208 1
E 1 1211 100000
E 2 1211 100000
E 3 1211 100000
E 4 1211 100000
E 5 1212 100000
E 6 1212 100000
E 7 1212 100000
E 8 1212 100000
E 9 1212 100000
E 10 1212 100000
E 11 1212 100000
E 12 1212 100000
E 13 1213 100000
E 14 1213 100000
E 15 1213 100000
E 16 1213 100000
E 17 1213 100000
E 18 1214 100000
E 19 1214 100000
E 20 1214 100000
E 21 1214 100000
E 22 1215 100000
E 23 1215 100000
E 24 1215 100000
E 25 1215 100000
E 26 1216 100000
E 27 1216 100000
E 28 1216 100000
E 29 1217 100000
E 30 1217 100000
E 31 1218 100000
E 32 1218 100000
E 33 1218 100000
E 34 1218 100000
E 35 1219 100000
E 36 1219 100000
E 37 1219 100000
E 38 1219 100000
E 39 1220 100000
E 40 1220 100000
E 41 1220 100000
E 42 1220 100000
E 43 1221 100000
E 44 1221 100000
E 45 1221 100000
E 46 1221 100000
E 47 1222 100000
E 48 1222 100000
E 49 1223 100000
E 50 1223 100000
E 51 1224 100000
E 52 1224 100000
E 53 1224 100000
E 54 1224 100000
E 55 1224 100000
E 56 1225 100000
E 57 1225 100000
E 58 1225 100000
E 59 1225 100000
E 60 1225 100000
E 61 1226 100000
E 62 1226 100000
E 63 1227 100000
E 64 1227 100000
E 65 1227 100000
E 66 1227 100000
E 67 1227 100000
E 68 1227 100000
E 69 1228 100000
E 70 1228 100000
E 71 1228 100000
E 72 1228 100000
E 73 1228 100000
E 74 1228 100000
E 75 1228 100000
E 76 1228 100000
E 77 1229 100000
E 78 1229 100000
E 79 1229 100000
E 80 1229 100000
E 81 1229 100000
E 82 1230 100000
E 83 1230 100000
E 84 1230 100000
E 85 1231 100000
E 86 1231 100000
E 87 1232 100000
E 88 1232 100000
E 89 1232 100000
E 90 1232 100000
E 91 1233 100000
E 92 1233 100000
E 93 1233 100000
E 94 1233 100000
E 95 1234 100000
E 96 1234 100000
E 97 1234 100000
E 98 1234 100000
E 99 1234 100000
E 100 1234 100000
E 101 1235 100000
E 102 1235 100000
E 103 1236 100000
E 104 1236 100000
E 105 1237 100000
E 106 1237 100000
E 107 1238 100000
E 108 1238 100000
E 109 1238 100000
E 110 1238 100000
E 111 1239 100000
E 112 1239 100000
E 113 1239 100000
E 114 1239 100000
E 115 1240 100000
E 116 1240 100000
E 117 1240 100000
E 118 1241 100000
E 119 1241 100000
E 120 1242 100000
E 121 1242 100000
E 122 1242 100000
E 123 1242 100000
E 124 1243 100000
E 125 1243 100000
E 126 1243 100000
E 127 1243 100000
E 128 1244 100000
E 129 1212 100000
E 130 1212 100000
E 131 1212 100000
E 132 1212 100000
E 133 1213 100000
E 134 1213 100000
E 135 1213 100000
E 136 1213 100000
E 137 1213 100000
E 138 1213 100000
E 139 1215 100000
E 140 1215 100000
E 141 1215 100000
E 142 1215 100000
E 143 1215 100000
E 144 1216 100000
E 145 1225 100000
E 146 1228 100000
E 147 1228 100000
E 148 1228 100000
E 149 1228 100000
E 150 1228 100000
E 151 1228 100000
E 152 1228 100000
E 153 1229 100000
E 154 1229 100000
E 155 1229 100000
E 156 1229 100000
E 157 1229 100000
E 158 1229 100000
E 159 1229 100000
E 160 1229 100000
E 161 1230 100000
E 162 1232 100000
E 163 1232 100000
E 164 1232 100000
E 165 1232 100000
E 166 1232 100000
E 167 1232 100000
E 168 1232 100000
E 169 1234 100000
E 170 1238 100000
END

SECTION Terminals
Terminals 34
T 1211
T 1212
T 1213
T 1214
T 1215
T 1216
T 1217
T 1218
T 1219
T 1220
T 1221
T 1222
T 1223
T 1224
T 1225
T 1226
T 1227
T 1228
T 1229
T 1230
T 1231
T 1232
T 1233
T 1234
T 1235
T 1236
T 1237
T 1238
T 1239
T 1240
T 1241
T 1242
T 1243
T 1244
END

EOF
